decision_x1=[0,7];
decision_x2=[0,7];
decision_x3=[0,7];
decision_x4=[0,7];
decision_x5=[0,7];
decision_x6=[0,7];
decision_x7=[0,7];
decision_x8=[0,7];
decision_x9=[0,7];
decision_x10=[0,7];
decision_x11=[0,7];
decision_x12=[0,7];
decision_x13=[0,7];
decision_x14=[0,7];
decision_x15=[0,7];
decision_x16=[0,7];
decision_x17=[0,7];
decision_x18=[0,7];
random_y1=[0,7];
random_y2=[0,7];
random_y3=[0,7];
random_y4=[0,7];
random_y5=[0,7];
random_y6=[0,7];
random_y7=[0,7];
random_y8=[0,7];
constraint_x2_x1=[
0,0,3.2|
0,1,8.6|
0,2,1.4|
0,3,6.6|
0,4,0.51|
0,5,9.6|
0,6,6.5|
0,7,3.6|
1,0,2.6|
1,1,7.3|
1,2,6.6|
1,3,8|
1,4,8.6|
1,5,3.7|
1,6,8.5|
1,7,1.7|
2,0,6.4|
2,1,6.4|
2,2,5.4|
2,3,5.1|
2,4,1.3|
2,5,9.1|
2,6,1.5|
2,7,7.4|
3,0,1.3|
3,1,5.9|
3,2,1.8|
3,3,7.6|
3,4,1.1|
3,5,6.3|
3,6,9.3|
3,7,4.7|
4,0,7.1|
4,1,1.2|
4,2,5.8|
4,3,7.3|
4,4,3.4|
4,5,0.8|
4,6,10|
4,7,9.9|
5,0,4.9|
5,1,4.1|
5,2,5.2|
5,3,7.1|
5,4,1.4|
5,5,0.84|
5,6,1.8|
5,7,0.8|
6,0,8.3|
6,1,0.5|
6,2,7.4|
6,3,1.7|
6,4,7.9|
6,5,6.1|
6,6,0.29|
6,7,8.2|
7,0,8.7|
7,1,8.5|
7,2,0.16|
7,3,2.1|
7,4,5.7|
7,5,7.8|
7,6,9.9|
7,7,1.6|
];
constraint_x3_x2=[
0,0,8.3|
0,1,7.7|
0,2,8.9|
0,3,2.3|
0,4,4.7|
0,5,3.2|
0,6,9.6|
0,7,0.34|
1,0,6.5|
1,1,9.5|
1,2,2.1|
1,3,3.2|
1,4,9.2|
1,5,4.4|
1,6,9.4|
1,7,1.9|
2,0,4.9|
2,1,4.1|
2,2,4|
2,3,5.6|
2,4,2.5|
2,5,3.8|
2,6,9.4|
2,7,2|
3,0,4|
3,1,2.1|
3,2,2.5|
3,3,5.1|
3,4,0.42|
3,5,1|
3,6,2.4|
3,7,6.2|
4,0,8.7|
4,1,3.7|
4,2,3.7|
4,3,4.3|
4,4,8.9|
4,5,5.9|
4,6,6.7|
4,7,6.1|
5,0,2.7|
5,1,7.9|
5,2,7.4|
5,3,1.6|
5,4,1|
5,5,9.4|
5,6,0.51|
5,7,1.4|
6,0,1.4|
6,1,3.5|
6,2,1|
6,3,5.2|
6,4,3.9|
6,5,2.8|
6,6,5.7|
6,7,7.3|
7,0,2|
7,1,7|
7,2,9.7|
7,3,3.7|
7,4,0.26|
7,5,5.2|
7,6,9.4|
7,7,1.1|
];
constraint_x4_x3=[
0,0,8.1|
0,1,5.3|
0,2,1.5|
0,3,4.9|
0,4,7.7|
0,5,4.6|
0,6,1|
0,7,5.6|
1,0,3.3|
1,1,4|
1,2,5.4|
1,3,3.7|
1,4,4|
1,5,9.8|
1,6,3.2|
1,7,6.7|
2,0,5.5|
2,1,3.8|
2,2,7|
2,3,6.1|
2,4,2.9|
2,5,9.4|
2,6,9.6|
2,7,7.9|
3,0,2.6|
3,1,0.13|
3,2,3|
3,3,2.9|
3,4,9.3|
3,5,8.5|
3,6,8|
3,7,8.9|
4,0,3.4|
4,1,1.8|
4,2,5.3|
4,3,4.9|
4,4,1.8|
4,5,3|
4,6,4.3|
4,7,2.6|
5,0,2.7|
5,1,1.1|
5,2,9.1|
5,3,3.9|
5,4,8.7|
5,5,9.1|
5,6,4.7|
5,7,6|
6,0,6.4|
6,1,8.8|
6,2,9.3|
6,3,6.2|
6,4,9.5|
6,5,2.8|
6,6,2.4|
6,7,4.3|
7,0,8.2|
7,1,7.3|
7,2,4.9|
7,3,7.8|
7,4,6.6|
7,5,5.1|
7,6,1.7|
7,7,8.3|
];
constraint_x5_x1=[
0,0,3.6|
0,1,5.9|
0,2,4.8|
0,3,1.7|
0,4,7.2|
0,5,8.5|
0,6,9.8|
0,7,1.9|
1,0,6.4|
1,1,9.7|
1,2,7.5|
1,3,6.9|
1,4,8.3|
1,5,6.9|
1,6,8.7|
1,7,8|
2,0,8.2|
2,1,8.9|
2,2,6.4|
2,3,2.9|
2,4,7.9|
2,5,0.2|
2,6,3.4|
2,7,5|
3,0,6.2|
3,1,7.4|
3,2,5.7|
3,3,6.7|
3,4,7.4|
3,5,0.45|
3,6,5.9|
3,7,1.6|
4,0,5.1|
4,1,9.2|
4,2,9.7|
4,3,8.4|
4,4,4.8|
4,5,0.55|
4,6,5|
4,7,3.9|
5,0,0.33|
5,1,3.1|
5,2,6.8|
5,3,2.3|
5,4,2.6|
5,5,4.1|
5,6,6|
5,7,8.3|
6,0,4.1|
6,1,3.2|
6,2,3.8|
6,3,3.9|
6,4,6.3|
6,5,2.4|
6,6,5.1|
6,7,3.7|
7,0,3.3|
7,1,3.4|
7,2,7.6|
7,3,9|
7,4,2.7|
7,5,1.4|
7,6,1.7|
7,7,7.8|
];
constraint_x6_x2=[
0,0,8.6|
0,1,2.9|
0,2,6.6|
0,3,7.9|
0,4,1|
0,5,9|
0,6,7.2|
0,7,5.9|
1,0,3.4|
1,1,9.3|
1,2,3.7|
1,3,0.25|
1,4,7|
1,5,4.6|
1,6,2.6|
1,7,9.3|
2,0,5.7|
2,1,9.4|
2,2,4.5|
2,3,8.6|
2,4,8.9|
2,5,1.6|
2,6,2.1|
2,7,8.5|
3,0,7.8|
3,1,6.5|
3,2,2.1|
3,3,5|
3,4,5.6|
3,5,3.8|
3,6,1.6|
3,7,3.1|
4,0,4.2|
4,1,3.3|
4,2,8|
4,3,9.5|
4,4,3.8|
4,5,6.1|
4,6,3|
4,7,9.7|
5,0,9|
5,1,7.7|
5,2,4.2|
5,3,6.4|
5,4,4|
5,5,1.8|
5,6,6.7|
5,7,1.5|
6,0,7|
6,1,6.8|
6,2,1.1|
6,3,1.3|
6,4,0.35|
6,5,2.3|
6,6,2.6|
6,7,7.4|
7,0,5.2|
7,1,8.7|
7,2,9.2|
7,3,6|
7,4,6.4|
7,5,0.71|
7,6,4.4|
7,7,0.7|
];
constraint_x7_x3=[
0,0,2.7|
0,1,2.9|
0,2,9|
0,3,7.4|
0,4,5.5|
0,5,2.3|
0,6,6.3|
0,7,7.8|
1,0,5.5|
1,1,7.4|
1,2,4.9|
1,3,4|
1,4,8.5|
1,5,3.6|
1,6,3.4|
1,7,1.7|
2,0,1|
2,1,5|
2,2,7.9|
2,3,0.62|
2,4,6.1|
2,5,3.6|
2,6,1|
2,7,8.8|
3,0,3.7|
3,1,1.5|
3,2,6.9|
3,3,0.29|
3,4,5.9|
3,5,8.9|
3,6,7.8|
3,7,2.7|
4,0,7.1|
4,1,6.6|
4,2,8.8|
4,3,5.5|
4,4,9.9|
4,5,2.6|
4,6,0.53|
4,7,6.1|
5,0,4.8|
5,1,2.3|
5,2,9|
5,3,5.7|
5,4,3.8|
5,5,6.9|
5,6,2.4|
5,7,4.7|
6,0,7.2|
6,1,1.6|
6,2,8.6|
6,3,5.3|
6,4,4.8|
6,5,4.5|
6,6,9.7|
6,7,5.3|
7,0,2.4|
7,1,7|
7,2,4.3|
7,3,0.39|
7,4,9.8|
7,5,3.6|
7,6,6.4|
7,7,9.2|
];
constraint_x8_x4=[
0,0,8.6|
0,1,3.5|
0,2,2|
0,3,9.3|
0,4,3.5|
0,5,7.2|
0,6,2.7|
0,7,9.2|
1,0,9.5|
1,1,5.6|
1,2,2.9|
1,3,1.4|
1,4,3.3|
1,5,6.8|
1,6,8.4|
1,7,7.6|
2,0,5.8|
2,1,2.8|
2,2,1.6|
2,3,6.1|
2,4,10|
2,5,3.1|
2,6,0.86|
2,7,6.7|
3,0,6.7|
3,1,4.4|
3,2,7|
3,3,3.2|
3,4,8.8|
3,5,9.6|
3,6,2.6|
3,7,9.6|
4,0,8.8|
4,1,9|
4,2,0.72|
4,3,7.9|
4,4,4.4|
4,5,8.2|
4,6,1.5|
4,7,3.5|
5,0,3.7|
5,1,0.75|
5,2,7.5|
5,3,6.7|
5,4,7.7|
5,5,4.3|
5,6,5.3|
5,7,1.4|
6,0,2.6|
6,1,9.5|
6,2,5.6|
6,3,5.7|
6,4,3.9|
6,5,6|
6,6,3.2|
6,7,5.9|
7,0,2.6|
7,1,9.1|
7,2,4.5|
7,3,2.8|
7,4,0.27|
7,5,7.6|
7,6,2.1|
7,7,4|
];
constraint_x9_x5=[
0,0,4.5|
0,1,8.3|
0,2,3|
0,3,0.41|
0,4,2.3|
0,5,0.88|
0,6,8.3|
0,7,8.3|
1,0,3.6|
1,1,6.4|
1,2,0.099|
1,3,1.1|
1,4,6.9|
1,5,8.3|
1,6,7.6|
1,7,0.0017|
2,0,3|
2,1,5.7|
2,2,2.7|
2,3,8.8|
2,4,6.9|
2,5,4.9|
2,6,5.4|
2,7,6.1|
3,0,2.4|
3,1,7.5|
3,2,4.4|
3,3,0.84|
3,4,4.9|
3,5,7.2|
3,6,7.6|
3,7,6.1|
4,0,5|
4,1,3.9|
4,2,1.9|
4,3,6.1|
4,4,7.7|
4,5,3.3|
4,6,6|
4,7,3.6|
5,0,9.1|
5,1,5.1|
5,2,8|
5,3,9.2|
5,4,4.6|
5,5,6.3|
5,6,10|
5,7,6.9|
6,0,7|
6,1,5.6|
6,2,1.3|
6,3,5.8|
6,4,9.8|
6,5,4|
6,6,3.7|
6,7,2.9|
7,0,2.3|
7,1,7|
7,2,9.6|
7,3,0.5|
7,4,5.1|
7,5,9.3|
7,6,8.4|
7,7,8.1|
];
constraint_x10_x6=[
0,0,0.18|
0,1,9.2|
0,2,0.16|
0,3,1.5|
0,4,10|
0,5,8.2|
0,6,3.5|
0,7,5.1|
1,0,8.9|
1,1,0.75|
1,2,5.6|
1,3,2|
1,4,6.5|
1,5,0.0015|
1,6,3.7|
1,7,0.33|
2,0,2.1|
2,1,9.3|
2,2,1.5|
2,3,1.9|
2,4,2.3|
2,5,1.6|
2,6,0.0057|
2,7,8.6|
3,0,1.5|
3,1,1.9|
3,2,2.9|
3,3,7.9|
3,4,4.9|
3,5,1.4|
3,6,5.3|
3,7,7.2|
4,0,1.2|
4,1,5.4|
4,2,3.1|
4,3,9.3|
4,4,4.8|
4,5,9.8|
4,6,6.7|
4,7,9.9|
5,0,8.9|
5,1,7.6|
5,2,0.73|
5,3,9|
5,4,4.9|
5,5,2.7|
5,6,1.2|
5,7,5.7|
6,0,9.6|
6,1,3.1|
6,2,8.4|
6,3,9.9|
6,4,2.2|
6,5,8.5|
6,6,8.1|
6,7,2.2|
7,0,9.7|
7,1,9.9|
7,2,7.4|
7,3,2.7|
7,4,7.6|
7,5,3.2|
7,6,6|
7,7,1.5|
];
constraint_x11_x7=[
0,0,3|
0,1,9.8|
0,2,3.8|
0,3,3.9|
0,4,8.6|
0,5,0.78|
0,6,5.8|
0,7,6.3|
1,0,5.2|
1,1,6.6|
1,2,6.2|
1,3,1.4|
1,4,2.5|
1,5,2.3|
1,6,1.5|
1,7,6|
2,0,3.7|
2,1,8.4|
2,2,5.6|
2,3,0.023|
2,4,7.2|
2,5,2.8|
2,6,8.6|
2,7,8.5|
3,0,4.8|
3,1,3.1|
3,2,2.4|
3,3,4.4|
3,4,8.8|
3,5,2.3|
3,6,4.4|
3,7,3.5|
4,0,7.2|
4,1,6.7|
4,2,0.62|
4,3,7.7|
4,4,2.5|
4,5,0.25|
4,6,0.95|
4,7,5.6|
5,0,3.4|
5,1,0.25|
5,2,8.3|
5,3,6.5|
5,4,6.8|
5,5,0.13|
5,6,5.3|
5,7,4.1|
6,0,0.15|
6,1,9.4|
6,2,7.1|
6,3,7.9|
6,4,4|
6,5,3.5|
6,6,0.43|
6,7,2.6|
7,0,0.13|
7,1,8.4|
7,2,3.7|
7,3,3.8|
7,4,1.1|
7,5,5.8|
7,6,2.8|
7,7,0.41|
];
constraint_x12_x8=[
0,0,7.1|
0,1,5.8|
0,2,4.6|
0,3,5.8|
0,4,9.2|
0,5,8.4|
0,6,6|
0,7,7.3|
1,0,3.8|
1,1,1.7|
1,2,0.83|
1,3,8.8|
1,4,9|
1,5,1.1|
1,6,8.8|
1,7,5|
2,0,5.9|
2,1,3|
2,2,0.77|
2,3,9.4|
2,4,8.8|
2,5,0.82|
2,6,7.3|
2,7,3.2|
3,0,4.3|
3,1,7.4|
3,2,2.3|
3,3,0.87|
3,4,9.2|
3,5,4.1|
3,6,4.2|
3,7,0.26|
4,0,5.4|
4,1,2|
4,2,8|
4,3,2.9|
4,4,1.5|
4,5,4|
4,6,6|
4,7,6.4|
5,0,6.2|
5,1,8.9|
5,2,6.9|
5,3,1.7|
5,4,2.6|
5,5,8.9|
5,6,8.5|
5,7,9.1|
6,0,3.8|
6,1,8.9|
6,2,4.5|
6,3,7|
6,4,1.6|
6,5,4.2|
6,6,5.6|
6,7,9.9|
7,0,5.2|
7,1,8|
7,2,8.4|
7,3,3.6|
7,4,7.5|
7,5,6.8|
7,6,9|
7,7,0.71|
];
constraint_x13_x9=[
0,0,2.1|
0,1,7.7|
0,2,0.18|
0,3,8.1|
0,4,4.9|
0,5,0.68|
0,6,0.42|
0,7,3.5|
1,0,7.3|
1,1,0.6|
1,2,7.2|
1,3,5.2|
1,4,9.4|
1,5,1.3|
1,6,6.5|
1,7,5.3|
2,0,4.2|
2,1,9|
2,2,1.3|
2,3,10|
2,4,10|
2,5,9.8|
2,6,8.7|
2,7,0.57|
3,0,7|
3,1,3.2|
3,2,8.1|
3,3,8.2|
3,4,2.2|
3,5,1.8|
3,6,3.6|
3,7,8.7|
4,0,8.3|
4,1,3.2|
4,2,8.7|
4,3,5.1|
4,4,9.5|
4,5,5.3|
4,6,1.5|
4,7,1.2|
5,0,3.4|
5,1,1.7|
5,2,3.8|
5,3,6.5|
5,4,5.1|
5,5,7.3|
5,6,5.9|
5,7,5.8|
6,0,0.32|
6,1,2.9|
6,2,6.9|
6,3,0.056|
6,4,1.1|
6,5,5|
6,6,9.1|
6,7,9.2|
7,0,9.6|
7,1,0.83|
7,2,8.1|
7,3,9.7|
7,4,1.7|
7,5,5.8|
7,6,0.45|
7,7,7.7|
];
constraint_x14_x10=[
0,0,7|
0,1,8.9|
0,2,8.3|
0,3,3.9|
0,4,7.4|
0,5,1.6|
0,6,2.6|
0,7,7.9|
1,0,3.8|
1,1,1.1|
1,2,9.6|
1,3,5.9|
1,4,2|
1,5,6.3|
1,6,1.1|
1,7,9.6|
2,0,6.7|
2,1,7.3|
2,2,4.2|
2,3,9.7|
2,4,2.9|
2,5,8.9|
2,6,9.3|
2,7,1.2|
3,0,2|
3,1,2.9|
3,2,8.6|
3,3,3.7|
3,4,9.4|
3,5,7.8|
3,6,1.6|
3,7,5.4|
4,0,2|
4,1,1.6|
4,2,5.6|
4,3,6|
4,4,8.4|
4,5,1.3|
4,6,0.59|
4,7,5.5|
5,0,2.7|
5,1,5.3|
5,2,1.6|
5,3,9.6|
5,4,6.1|
5,5,7|
5,6,7.8|
5,7,3.1|
6,0,9.8|
6,1,0.62|
6,2,9.2|
6,3,0.95|
6,4,3.5|
6,5,6.7|
6,6,5.4|
6,7,7.2|
7,0,6.6|
7,1,5.7|
7,2,0.98|
7,3,5.1|
7,4,7.8|
7,5,0.36|
7,6,4|
7,7,6.4|
];
constraint_x15_x11=[
0,0,2.2|
0,1,8|
0,2,7.5|
0,3,8.5|
0,4,2.5|
0,5,7.7|
0,6,6.8|
0,7,1|
1,0,1.4|
1,1,7.9|
1,2,1.8|
1,3,1.3|
1,4,8.6|
1,5,8.7|
1,6,0.098|
1,7,3.9|
2,0,9.9|
2,1,3|
2,2,1.6|
2,3,6.9|
2,4,3.8|
2,5,6.5|
2,6,4.2|
2,7,3.9|
3,0,6|
3,1,1|
3,2,9.9|
3,3,3.6|
3,4,3.9|
3,5,7.5|
3,6,5.9|
3,7,8.4|
4,0,3.3|
4,1,5.1|
4,2,7.9|
4,3,7.7|
4,4,8.6|
4,5,1.8|
4,6,8.9|
4,7,2.3|
5,0,2.2|
5,1,7.2|
5,2,2.7|
5,3,3.6|
5,4,3.4|
5,5,7.4|
5,6,7.8|
5,7,6.9|
6,0,9.9|
6,1,5.5|
6,2,5|
6,3,7.6|
6,4,9.9|
6,5,8.9|
6,6,1.2|
6,7,0.63|
7,0,4.7|
7,1,6.4|
7,2,4.7|
7,3,6.3|
7,4,6.2|
7,5,6|
7,6,2.6|
7,7,6.8|
];
constraint_x16_x12=[
0,0,5.9|
0,1,5.2|
0,2,2.1|
0,3,3|
0,4,7.1|
0,5,3.2|
0,6,1.2|
0,7,6|
1,0,4.5|
1,1,4.4|
1,2,2.4|
1,3,5.1|
1,4,3.3|
1,5,6|
1,6,0.09|
1,7,1.3|
2,0,4.8|
2,1,4.3|
2,2,7|
2,3,1.6|
2,4,2.3|
2,5,4.9|
2,6,6.6|
2,7,1.8|
3,0,8.5|
3,1,5.9|
3,2,2.3|
3,3,2.7|
3,4,6.7|
3,5,2.4|
3,6,1.7|
3,7,5.6|
4,0,9.2|
4,1,9.9|
4,2,7.4|
4,3,3.2|
4,4,5.2|
4,5,3.9|
4,6,0.85|
4,7,9.3|
5,0,2.7|
5,1,2.2|
5,2,4.2|
5,3,5.1|
5,4,5.6|
5,5,3.3|
5,6,8.6|
5,7,3.4|
6,0,0.34|
6,1,6.4|
6,2,7.7|
6,3,3.5|
6,4,6.6|
6,5,9.4|
6,6,4.9|
6,7,3|
7,0,2.9|
7,1,8.8|
7,2,5.7|
7,3,6.7|
7,4,6.8|
7,5,7|
7,6,7.6|
7,7,4.7|
];
constraint_x17_x13=[
0,0,4.5|
0,1,5.4|
0,2,0.77|
0,3,9.1|
0,4,4.2|
0,5,8.6|
0,6,7.3|
0,7,4.2|
1,0,2.4|
1,1,1.3|
1,2,9.2|
1,3,7.8|
1,4,1.8|
1,5,6.2|
1,6,3.8|
1,7,2.7|
2,0,3.5|
2,1,4.2|
2,2,9.1|
2,3,2.8|
2,4,6.6|
2,5,0.76|
2,6,4.8|
2,7,8.5|
3,0,4.1|
3,1,7.9|
3,2,2|
3,3,7.7|
3,4,9.8|
3,5,1.4|
3,6,4.8|
3,7,3.6|
4,0,6|
4,1,3.3|
4,2,3.3|
4,3,2.1|
4,4,0.83|
4,5,2.7|
4,6,5.5|
4,7,2.1|
5,0,1.6|
5,1,8.3|
5,2,3.3|
5,3,1.4|
5,4,4.6|
5,5,8.5|
5,6,2.7|
5,7,4.6|
6,0,4.4|
6,1,3.4|
6,2,7.4|
6,3,8.7|
6,4,6.7|
6,5,0.65|
6,6,1.5|
6,7,7|
7,0,9.1|
7,1,4.8|
7,2,3.8|
7,3,5.4|
7,4,1.7|
7,5,5.7|
7,6,1.7|
7,7,2.9|
];
constraint_x18_x14=[
0,0,6.3|
0,1,7.7|
0,2,2|
0,3,9.4|
0,4,9.8|
0,5,4.5|
0,6,6.2|
0,7,8.6|
1,0,9.5|
1,1,2.7|
1,2,9.7|
1,3,2.8|
1,4,3.6|
1,5,2.7|
1,6,0.79|
1,7,4.3|
2,0,5.5|
2,1,8.3|
2,2,4.8|
2,3,2.8|
2,4,6.2|
2,5,7|
2,6,2.6|
2,7,9.2|
3,0,0.037|
3,1,0.47|
3,2,6.6|
3,3,4.5|
3,4,9.5|
3,5,4.7|
3,6,1.8|
3,7,6.8|
4,0,7.8|
4,1,7|
4,2,5.1|
4,3,4.4|
4,4,6.9|
4,5,1.8|
4,6,5|
4,7,8|
5,0,0.45|
5,1,9.5|
5,2,1.7|
5,3,10|
5,4,1.1|
5,5,4.8|
5,6,9.6|
5,7,8.9|
6,0,8.6|
6,1,6.8|
6,2,5.8|
6,3,3.2|
6,4,2.1|
6,5,3.8|
6,6,7.2|
6,7,7.4|
7,0,7.1|
7,1,2|
7,2,9.5|
7,3,0.011|
7,4,3.3|
7,5,4.8|
7,6,6.6|
7,7,7.5|
];
constraint_x1_y1=[
0,0,3.5|
0,1,2.7|
0,2,5.2|
0,3,4.2|
0,4,5.4|
0,5,3|
0,6,0.34|
0,7,2.4|
1,0,1.9|
1,1,2.1|
1,2,4.3|
1,3,1.2|
1,4,5.5|
1,5,1.1|
1,6,7.5|
1,7,6.5|
2,0,4.6|
2,1,0.32|
2,2,0.24|
2,3,6.6|
2,4,7.8|
2,5,7.8|
2,6,8.9|
2,7,0.96|
3,0,2.7|
3,1,8.6|
3,2,9.9|
3,3,5.5|
3,4,9.4|
3,5,3|
3,6,4.8|
3,7,0.96|
4,0,4.8|
4,1,8.2|
4,2,6.8|
4,3,7.3|
4,4,9.2|
4,5,4.2|
4,6,8.8|
4,7,2.5|
5,0,6.5|
5,1,0.54|
5,2,4.3|
5,3,7.8|
5,4,4.9|
5,5,2.7|
5,6,0.64|
5,7,3.5|
6,0,0.84|
6,1,9.9|
6,2,9.7|
6,3,9|
6,4,5.2|
6,5,3.3|
6,6,9.6|
6,7,8.5|
7,0,5.8|
7,1,1.3|
7,2,7.7|
7,3,9.3|
7,4,2.4|
7,5,0.11|
7,6,2.4|
7,7,8.9|
];
constraint_x2_y2=[
0,0,6.2|
0,1,9.5|
0,2,7.7|
0,3,4.1|
0,4,8.8|
0,5,4.2|
0,6,9.6|
0,7,1.5|
1,0,0.37|
1,1,1.6|
1,2,3.6|
1,3,2.4|
1,4,5.8|
1,5,0.47|
1,6,4.6|
1,7,2.9|
2,0,2.9|
2,1,9|
2,2,3|
2,3,2.9|
2,4,1.4|
2,5,4.8|
2,6,9.8|
2,7,2.9|
3,0,7.2|
3,1,9.5|
3,2,3.6|
3,3,0.37|
3,4,9.6|
3,5,5.1|
3,6,3.5|
3,7,5.9|
4,0,1.3|
4,1,8.7|
4,2,7.7|
4,3,3.4|
4,4,0.55|
4,5,9.3|
4,6,5.6|
4,7,9.5|
5,0,4.9|
5,1,2.2|
5,2,4.1|
5,3,9.9|
5,4,2.1|
5,5,8.9|
5,6,4.2|
5,7,6.9|
6,0,10|
6,1,7.6|
6,2,7.7|
6,3,2.3|
6,4,5.8|
6,5,5.3|
6,6,7.9|
6,7,5.1|
7,0,5.2|
7,1,2.3|
7,2,5.1|
7,3,9.5|
7,4,7.9|
7,5,0.43|
7,6,1.4|
7,7,10|
];
constraint_x3_y3=[
0,0,9.5|
0,1,0.26|
0,2,8.3|
0,3,7.6|
0,4,9.6|
0,5,9.6|
0,6,0.66|
0,7,4.3|
1,0,7.5|
1,1,8.9|
1,2,6.3|
1,3,0.73|
1,4,2|
1,5,9|
1,6,5.1|
1,7,3.5|
2,0,0.4|
2,1,0.94|
2,2,8.6|
2,3,2.8|
2,4,4.3|
2,5,0.58|
2,6,8.7|
2,7,8.4|
3,0,0.39|
3,1,7|
3,2,1|
3,3,8.7|
3,4,8.5|
3,5,1.6|
3,6,0.19|
3,7,8.5|
4,0,9.3|
4,1,6.5|
4,2,7.1|
4,3,0.13|
4,4,7.3|
4,5,3.1|
4,6,7.4|
4,7,8.4|
5,0,6.9|
5,1,8.4|
5,2,1.1|
5,3,6|
5,4,3.6|
5,5,0.71|
5,6,0.57|
5,7,0.2|
6,0,5.8|
6,1,9.7|
6,2,3.2|
6,3,2.5|
6,4,7.3|
6,5,6.5|
6,6,6.9|
6,7,5.5|
7,0,6.5|
7,1,2|
7,2,3.1|
7,3,1|
7,4,2.9|
7,5,0.9|
7,6,0.34|
7,7,0.99|
];
constraint_x4_y4=[
0,0,5.2|
0,1,5.2|
0,2,8.2|
0,3,1.3|
0,4,9.9|
0,5,5.7|
0,6,0.54|
0,7,0.28|
1,0,4.2|
1,1,2.4|
1,2,5.9|
1,3,3.5|
1,4,8.6|
1,5,3.4|
1,6,1.3|
1,7,3.1|
2,0,1.9|
2,1,9.1|
2,2,9.3|
2,3,6.7|
2,4,9.3|
2,5,8.5|
2,6,3.6|
2,7,9.1|
3,0,0.22|
3,1,6.2|
3,2,2.1|
3,3,7.2|
3,4,0.65|
3,5,9.1|
3,6,7.5|
3,7,5.8|
4,0,0.15|
4,1,8.7|
4,2,6.3|
4,3,10|
4,4,4.5|
4,5,6.8|
4,6,4.5|
4,7,6|
5,0,5.4|
5,1,4.1|
5,2,3.2|
5,3,8.7|
5,4,8|
5,5,4|
5,6,0.88|
5,7,9.7|
6,0,1.3|
6,1,2.4|
6,2,9.4|
6,3,4.7|
6,4,0.13|
6,5,6.9|
6,6,6.6|
6,7,3.2|
7,0,3.7|
7,1,4.7|
7,2,2.8|
7,3,1.1|
7,4,7.4|
7,5,0.77|
7,6,1|
7,7,0.59|
];
constraint_x5_y5=[
0,0,7|
0,1,0.9|
0,2,0.73|
0,3,2.1|
0,4,9.2|
0,5,0.58|
0,6,8.7|
0,7,9.7|
1,0,3.5|
1,1,7.1|
1,2,9.2|
1,3,3.3|
1,4,3.6|
1,5,3|
1,6,9.1|
1,7,5.2|
2,0,7|
2,1,1.8|
2,2,0.31|
2,3,7.1|
2,4,8.2|
2,5,4.5|
2,6,9.4|
2,7,1.9|
3,0,7.8|
3,1,4.1|
3,2,4.7|
3,3,9.8|
3,4,3.1|
3,5,1.3|
3,6,4.1|
3,7,0.058|
4,0,8.4|
4,1,1.5|
4,2,3|
4,3,0.99|
4,4,2.1|
4,5,6.7|
4,6,6.2|
4,7,8.2|
5,0,1.2|
5,1,5.9|
5,2,8.1|
5,3,0.39|
5,4,7|
5,5,1.9|
5,6,4.8|
5,7,5.7|
6,0,5.1|
6,1,7.7|
6,2,9.2|
6,3,8.8|
6,4,5.2|
6,5,2.4|
6,6,8.6|
6,7,9.5|
7,0,9.9|
7,1,5.4|
7,2,7.3|
7,3,7.4|
7,4,7.1|
7,5,0.98|
7,6,0.25|
7,7,9.3|
];
constraint_x6_y6=[
0,0,7.5|
0,1,7.4|
0,2,7.2|
0,3,9.2|
0,4,3.9|
0,5,2|
0,6,8|
0,7,2.6|
1,0,5.6|
1,1,4.1|
1,2,9.6|
1,3,1.7|
1,4,3.5|
1,5,5.6|
1,6,6.8|
1,7,2.3|
2,0,7.4|
2,1,9.6|
2,2,5.1|
2,3,2.2|
2,4,9.1|
2,5,6.5|
2,6,0.86|
2,7,6.8|
3,0,8.4|
3,1,8.1|
3,2,0.54|
3,3,0.49|
3,4,6|
3,5,5.5|
3,6,7.5|
3,7,0.7|
4,0,6.2|
4,1,1.9|
4,2,0.7|
4,3,5.9|
4,4,9|
4,5,9.4|
4,6,2.9|
4,7,1.9|
5,0,9|
5,1,7|
5,2,1.2|
5,3,2.3|
5,4,1.5|
5,5,6.2|
5,6,2.3|
5,7,4.6|
6,0,5.1|
6,1,6.9|
6,2,0.18|
6,3,9.6|
6,4,0.98|
6,5,9.7|
6,6,0.034|
6,7,4.7|
7,0,1.4|
7,1,7.7|
7,2,4.9|
7,3,5.3|
7,4,1.5|
7,5,8.6|
7,6,5.2|
7,7,1.6|
];
constraint_x7_y7=[
0,0,8.3|
0,1,1.5|
0,2,8.3|
0,3,1.9|
0,4,9.1|
0,5,2.4|
0,6,2.3|
0,7,4.2|
1,0,5.1|
1,1,0.034|
1,2,0.12|
1,3,6.7|
1,4,6.4|
1,5,2.4|
1,6,7.5|
1,7,2.8|
2,0,4|
2,1,5|
2,2,7.7|
2,3,5.7|
2,4,6.5|
2,5,9.4|
2,6,0.91|
2,7,0.4|
3,0,4.6|
3,1,2.2|
3,2,9.2|
3,3,0.69|
3,4,1.7|
3,5,7.3|
3,6,3.2|
3,7,6.8|
4,0,1|
4,1,9.9|
4,2,7.8|
4,3,4.3|
4,4,0.51|
4,5,1.9|
4,6,1.2|
4,7,4.3|
5,0,5|
5,1,5.3|
5,2,5.7|
5,3,5.7|
5,4,3.9|
5,5,1.5|
5,6,5.1|
5,7,8.6|
6,0,2.9|
6,1,1.1|
6,2,6.5|
6,3,4.9|
6,4,0.94|
6,5,4|
6,6,5.9|
6,7,4.7|
7,0,4.4|
7,1,1.6|
7,2,5.9|
7,3,7.2|
7,4,2.1|
7,5,4.9|
7,6,0.32|
7,7,5.8|
];
constraint_x8_y8=[
0,0,3.5|
0,1,5.4|
0,2,1.9|
0,3,3.8|
0,4,8.3|
0,5,5.7|
0,6,9.8|
0,7,6.6|
1,0,1.9|
1,1,9.5|
1,2,1.2|
1,3,9|
1,4,2.4|
1,5,3.9|
1,6,9.9|
1,7,7.3|
2,0,9.4|
2,1,2.6|
2,2,9.8|
2,3,8.1|
2,4,2.6|
2,5,6.3|
2,6,6.8|
2,7,8.5|
3,0,1.8|
3,1,2.6|
3,2,6.9|
3,3,5.2|
3,4,0.035|
3,5,4.1|
3,6,6.2|
3,7,5.4|
4,0,9.3|
4,1,7.2|
4,2,2.8|
4,3,0.19|
4,4,6.8|
4,5,1|
4,6,8.4|
4,7,7.4|
5,0,6.7|
5,1,4.8|
5,2,9.1|
5,3,1.6|
5,4,2.2|
5,5,9.5|
5,6,7.3|
5,7,8.3|
6,0,2.2|
6,1,0.8|
6,2,9.9|
6,3,2.8|
6,4,1.3|
6,5,1.5|
6,6,3.8|
6,7,3|
7,0,9.3|
7,1,6.4|
7,2,4|
7,3,7|
7,4,9.5|
7,5,4.3|
7,6,7.8|
7,7,6.9|
];
initial_distribution_y1=[0.021,0.089,0.14,0.25,0.035,0.2,0.093,0.17];
initial_distribution_y2=[0.071,0.097,0.14,0.042,0.15,0.24,0.16,0.093];
initial_distribution_y3=[0.02,0.15,0.2,0.17,0.047,0.096,0.21,0.11];
initial_distribution_y4=[0.16,0.16,0.11,0.12,0.11,0.13,0.052,0.16];
initial_distribution_y5=[0.027,0.19,0.042,0.24,0.14,0.031,0.17,0.16];
initial_distribution_y6=[0.26,0.0071,0.043,0.19,0.033,0.24,0.19,0.037];
initial_distribution_y7=[0.038,0.2,0.14,0.18,0.13,0.063,0.18,0.067];
initial_distribution_y8=[0.037,0.15,0.13,0.054,0.15,0.2,0.077,0.21];
transition_y1=[
0.17,0.17,0.04,0.14,0.11,0.08,0.13,0.16|
0.3,0.029,0.096,0.015,0.22,0.21,0.075,0.059|
0.1,0.092,0.19,0.16,0.071,0.0088,0.17,0.21|
0.0091,0.2,0.018,0.14,0.088,0.19,0.17,0.19|
0.25,0.12,0.065,0.095,0.073,0.28,0.024,0.095|
0.15,0.0086,0.17,0.19,0.0054,0.064,0.18,0.24|
0.014,0.2,0.028,0.15,0.19,0.21,0.06,0.15|
0.18,0.087,0.18,0.029,0.18,0.16,0.047,0.14|
];
transition_y2=[
0.11,0.056,0.086,0.039,0.22,0.075,0.13,0.28|
0.12,0.1,0.052,0.1,0.2,0.18,0.066,0.17|
0.19,0.19,0.099,0.095,0.018,0.06,0.18,0.17|
0.049,0.17,0.016,0.042,0.25,0.28,0.0097,0.18|
0.063,0.15,0.17,0.088,0.14,0.15,0.089,0.15|
0.33,0.15,0.02,0.26,0.045,0.015,0.039,0.14|
0.11,0.2,0.16,0.21,0.081,0.083,0.13,0.036|
0.13,0.073,0.26,0.074,0.012,0.24,0.12,0.1|
];
transition_y3=[
0.13,0.067,0.23,0.16,0.064,0.091,0.085,0.17|
0.18,0.2,0.072,0.14,0.081,0.13,0.052,0.15|
0.084,0.034,0.21,0.15,0.25,0.0067,0.17,0.11|
0.036,0.038,0.054,0.11,0.21,0.23,0.19,0.12|
0.073,0.16,0.01,0.091,0.12,0.28,0.19,0.072|
0.04,0.2,0.36,0.045,0.15,0.14,0.014,0.047|
0.17,0.28,0.021,0.14,0.067,0.14,0.16,0.018|
0.12,0.22,0.19,0.078,0.12,0.13,0.14,0.01|
];
transition_y4=[
0.07,0.17,0.056,0.16,0.053,0.2,0.13,0.16|
0.1,0.0066,0.2,0.023,0.22,0.21,0.093,0.15|
0.092,0.037,0.23,0.051,0.056,0.27,0.22,0.041|
0.2,0.22,0.15,0.15,0.11,0.087,0.036,0.045|
0.077,0.13,0.011,0.22,0.17,0.14,0.078,0.16|
0.22,0.038,0.11,0.056,0.14,0.2,0.12,0.11|
0.24,0.049,0.21,0.23,0.0092,0.21,0.045,0.01|
0.087,0.027,0.051,0.23,0.069,0.28,0.02,0.23|
];
transition_y5=[
0.04,0.02,0.1,0.18,0.17,0.2,0.12,0.17|
0.1,0.093,0.17,0.2,0.18,0.18,0.01,0.065|
0.13,0.16,0.077,0.13,0.16,0.038,0.15,0.16|
0.16,0.16,0.028,0.14,0.19,0.13,0.15,0.027|
0.23,0.085,0.029,0.18,0.11,0.22,0.057,0.084|
0.18,0.17,0.083,0.14,0.092,0.11,0.044,0.19|
0.15,0.22,0.058,0.078,0.069,0.14,0.039,0.24|
0.029,0.17,0.073,0.12,0.16,0.059,0.11,0.27|
];
transition_y6=[
0.13,0.082,0.14,0.096,0.15,0.15,0.15,0.092|
0.11,0.081,0.26,0.17,0.078,0.088,0.079,0.13|
0.15,0.12,0.1,0.07,0.16,0.15,0.11,0.15|
0.17,0.1,0.11,0.019,0.17,0.17,0.068,0.17|
0.2,0.17,0.064,0.2,0.19,0.095,0.016,0.058|
0.07,0.18,0.15,0.13,0.097,0.17,0.15,0.053|
0.11,0.044,0.28,0.21,0.1,0.1,0.087,0.071|
0.22,0.024,0.14,0.074,0.082,0.19,0.092,0.18|
];
transition_y7=[
0.16,0.078,0.17,0.19,0.011,0.096,0.16,0.14|
0.11,0.17,0.17,0.12,0.22,0.15,0.029,0.028|
0.16,0.039,0.039,0.2,0.18,0.078,0.14,0.17|
0.22,0.19,0.22,0.1,0.051,0.041,0.0032,0.17|
0.2,0.036,0.0085,0.15,0.12,0.14,0.14,0.21|
0.057,0.13,0.058,0.17,0.16,0.15,0.13,0.14|
0.047,0.086,0.25,0.19,0.052,0.15,0.059,0.17|
0.039,0.15,0.083,0.18,0.15,0.18,0.058,0.17|
];
transition_y8=[
0.038,0.17,0.11,0.038,0.17,0.11,0.21,0.16|
0.093,0.086,0.11,0.23,0.071,0.061,0.19,0.15|
0.16,0.2,0.031,0.19,0.069,0.022,0.11,0.22|
0.21,0.14,0.075,0.069,0.12,0.18,0.098,0.099|
0.22,0.27,0.12,0.064,0.1,0.087,0.076,0.05|
0.12,0.17,0.18,0.0036,0.11,0.15,0.19,0.084|
0.16,0.047,0.063,0.18,0.078,0.071,0.16,0.23|
0.22,0.06,0.18,0.0075,0.16,0.23,0.13,0.0047|
];
